p cnf 242 352
43 44 1 67 0
43 44 1 -67 0
-43 -44 1 68 0
-43 -44 1 -68 0
43 -44 -1 69 0
43 -44 -1 -69 0
-43 44 -1 70 0
-43 44 -1 -70 0
1 45 2 71 0
1 45 2 -71 0
-1 -45 2 72 0
-1 -45 2 -72 0
1 -45 -2 73 0
1 -45 -2 -73 0
-1 45 -2 74 0
-1 45 -2 -74 0
2 46 3 75 0
2 46 3 -75 0
-2 -46 3 76 0
-2 -46 3 -76 0
2 -46 -3 77 0
2 -46 -3 -77 0
-2 46 -3 78 0
-2 46 -3 -78 0
3 47 4 79 0
3 47 4 -79 0
-3 -47 4 80 0
-3 -47 4 -80 0
3 -47 -4 81 0
3 -47 -4 -81 0
-3 47 -4 82 0
-3 47 -4 -82 0
4 48 5 83 0
4 48 5 -83 0
-4 -48 5 84 0
-4 -48 5 -84 0
4 -48 -5 85 0
4 -48 -5 -85 0
-4 48 -5 86 0
-4 48 -5 -86 0
5 49 6 87 0
5 49 6 -87 0
-5 -49 6 88 0
-5 -49 6 -88 0
5 -49 -6 89 0
5 -49 -6 -89 0
-5 49 -6 90 0
-5 49 -6 -90 0
6 50 7 91 0
6 50 7 -91 0
-6 -50 7 92 0
-6 -50 7 -92 0
6 -50 -7 93 0
6 -50 -7 -93 0
-6 50 -7 94 0
-6 50 -7 -94 0
7 51 8 95 0
7 51 8 -95 0
-7 -51 8 96 0
-7 -51 8 -96 0
7 -51 -8 97 0
7 -51 -8 -97 0
-7 51 -8 98 0
-7 51 -8 -98 0
8 52 9 99 0
8 52 9 -99 0
-8 -52 9 100 0
-8 -52 9 -100 0
8 -52 -9 101 0
8 -52 -9 -101 0
-8 52 -9 102 0
-8 52 -9 -102 0
9 53 10 103 0
9 53 10 -103 0
-9 -53 10 104 0
-9 -53 10 -104 0
9 -53 -10 105 0
9 -53 -10 -105 0
-9 53 -10 106 0
-9 53 -10 -106 0
10 54 11 107 0
10 54 11 -107 0
-10 -54 11 108 0
-10 -54 11 -108 0
10 -54 -11 109 0
10 -54 -11 -109 0
-10 54 -11 110 0
-10 54 -11 -110 0
11 55 12 111 0
11 55 12 -111 0
-11 -55 12 112 0
-11 -55 12 -112 0
11 -55 -12 113 0
11 -55 -12 -113 0
-11 55 -12 114 0
-11 55 -12 -114 0
12 56 13 115 0
12 56 13 -115 0
-12 -56 13 116 0
-12 -56 13 -116 0
12 -56 -13 117 0
12 -56 -13 -117 0
-12 56 -13 118 0
-12 56 -13 -118 0
13 57 14 119 0
13 57 14 -119 0
-13 -57 14 120 0
-13 -57 14 -120 0
13 -57 -14 121 0
13 -57 -14 -121 0
-13 57 -14 122 0
-13 57 -14 -122 0
14 58 15 123 0
14 58 15 -123 0
-14 -58 15 124 0
-14 -58 15 -124 0
14 -58 -15 125 0
14 -58 -15 -125 0
-14 58 -15 126 0
-14 58 -15 -126 0
15 59 16 127 0
15 59 16 -127 0
-15 -59 16 128 0
-15 -59 16 -128 0
15 -59 -16 129 0
15 -59 -16 -129 0
-15 59 -16 130 0
-15 59 -16 -130 0
16 60 17 131 0
16 60 17 -131 0
-16 -60 17 132 0
-16 -60 17 -132 0
16 -60 -17 133 0
16 -60 -17 -133 0
-16 60 -17 134 0
-16 60 -17 -134 0
17 61 18 135 0
17 61 18 -135 0
-17 -61 18 136 0
-17 -61 18 -136 0
17 -61 -18 137 0
17 -61 -18 -137 0
-17 61 -18 138 0
-17 61 -18 -138 0
18 62 19 139 0
18 62 19 -139 0
-18 -62 19 140 0
-18 -62 19 -140 0
18 -62 -19 141 0
18 -62 -19 -141 0
-18 62 -19 142 0
-18 62 -19 -142 0
19 63 20 143 0
19 63 20 -143 0
-19 -63 20 144 0
-19 -63 20 -144 0
19 -63 -20 145 0
19 -63 -20 -145 0
-19 63 -20 146 0
-19 63 -20 -146 0
20 64 21 147 0
20 64 21 -147 0
-20 -64 21 148 0
-20 -64 21 -148 0
20 -64 -21 149 0
20 -64 -21 -149 0
-20 64 -21 150 0
-20 64 -21 -150 0
21 65 66 151 0
21 65 66 -151 0
-21 -65 66 152 0
-21 -65 66 -152 0
21 -65 -66 153 0
21 -65 -66 -153 0
-21 65 -66 154 0
-21 65 -66 -154 0
22 65 66 155 0
22 65 66 -155 0
-22 -65 66 156 0
-22 -65 66 -156 0
22 -65 -66 157 0
22 -65 -66 -157 0
-22 65 -66 158 0
-22 65 -66 -158 0
23 64 22 159 0
23 64 22 -159 0
-23 -64 22 160 0
-23 -64 22 -160 0
23 -64 -22 161 0
23 -64 -22 -161 0
-23 64 -22 162 0
-23 64 -22 -162 0
24 63 23 163 0
24 63 23 -163 0
-24 -63 23 164 0
-24 -63 23 -164 0
24 -63 -23 165 0
24 -63 -23 -165 0
-24 63 -23 166 0
-24 63 -23 -166 0
25 62 24 167 0
25 62 24 -167 0
-25 -62 24 168 0
-25 -62 24 -168 0
25 -62 -24 169 0
25 -62 -24 -169 0
-25 62 -24 170 0
-25 62 -24 -170 0
26 61 25 171 0
26 61 25 -171 0
-26 -61 25 172 0
-26 -61 25 -172 0
26 -61 -25 173 0
26 -61 -25 -173 0
-26 61 -25 174 0
-26 61 -25 -174 0
27 60 26 175 0
27 60 26 -175 0
-27 -60 26 176 0
-27 -60 26 -176 0
27 -60 -26 177 0
27 -60 -26 -177 0
-27 60 -26 178 0
-27 60 -26 -178 0
28 59 27 179 0
28 59 27 -179 0
-28 -59 27 180 0
-28 -59 27 -180 0
28 -59 -27 181 0
28 -59 -27 -181 0
-28 59 -27 182 0
-28 59 -27 -182 0
29 58 28 183 0
29 58 28 -183 0
-29 -58 28 184 0
-29 -58 28 -184 0
29 -58 -28 185 0
29 -58 -28 -185 0
-29 58 -28 186 0
-29 58 -28 -186 0
30 57 29 187 0
30 57 29 -187 0
-30 -57 29 188 0
-30 -57 29 -188 0
30 -57 -29 189 0
30 -57 -29 -189 0
-30 57 -29 190 0
-30 57 -29 -190 0
31 56 30 191 0
31 56 30 -191 0
-31 -56 30 192 0
-31 -56 30 -192 0
31 -56 -30 193 0
31 -56 -30 -193 0
-31 56 -30 194 0
-31 56 -30 -194 0
32 55 31 195 0
32 55 31 -195 0
-32 -55 31 196 0
-32 -55 31 -196 0
32 -55 -31 197 0
32 -55 -31 -197 0
-32 55 -31 198 0
-32 55 -31 -198 0
33 54 32 199 0
33 54 32 -199 0
-33 -54 32 200 0
-33 -54 32 -200 0
33 -54 -32 201 0
33 -54 -32 -201 0
-33 54 -32 202 0
-33 54 -32 -202 0
34 53 33 203 0
34 53 33 -203 0
-34 -53 33 204 0
-34 -53 33 -204 0
34 -53 -33 205 0
34 -53 -33 -205 0
-34 53 -33 206 0
-34 53 -33 -206 0
35 52 34 207 0
35 52 34 -207 0
-35 -52 34 208 0
-35 -52 34 -208 0
35 -52 -34 209 0
35 -52 -34 -209 0
-35 52 -34 210 0
-35 52 -34 -210 0
36 51 35 211 0
36 51 35 -211 0
-36 -51 35 212 0
-36 -51 35 -212 0
36 -51 -35 213 0
36 -51 -35 -213 0
-36 51 -35 214 0
-36 51 -35 -214 0
37 50 36 215 0
37 50 36 -215 0
-37 -50 36 216 0
-37 -50 36 -216 0
37 -50 -36 217 0
37 -50 -36 -217 0
-37 50 -36 218 0
-37 50 -36 -218 0
38 49 37 219 0
38 49 37 -219 0
-38 -49 37 220 0
-38 -49 37 -220 0
38 -49 -37 221 0
38 -49 -37 -221 0
-38 49 -37 222 0
-38 49 -37 -222 0
39 48 38 223 0
39 48 38 -223 0
-39 -48 38 224 0
-39 -48 38 -224 0
39 -48 -38 225 0
39 -48 -38 -225 0
-39 48 -38 226 0
-39 48 -38 -226 0
40 47 39 227 0
40 47 39 -227 0
-40 -47 39 228 0
-40 -47 39 -228 0
40 -47 -39 229 0
40 -47 -39 -229 0
-40 47 -39 230 0
-40 47 -39 -230 0
41 46 40 231 0
41 46 40 -231 0
-41 -46 40 232 0
-41 -46 40 -232 0
41 -46 -40 233 0
41 -46 -40 -233 0
-41 46 -40 234 0
-41 46 -40 -234 0
42 45 41 235 0
42 45 41 -235 0
-42 -45 41 236 0
-42 -45 41 -236 0
42 -45 -41 237 0
42 -45 -41 -237 0
-42 45 -41 238 0
-42 45 -41 -238 0
43 44 -42 239 0
43 44 -42 -239 0
-43 -44 -42 240 0
-43 -44 -42 -240 0
43 -44 42 241 0
43 -44 42 -241 0
-43 44 42 242 0
-43 44 42 -242 0
